width,height
25,10
10,4
4,3
4,2
8,3
4,2
8,4
5,4
3,3
4,5
1,4
6,2
2,3
6,1
7,4
5,4
3,1
4,1
3,3
4,3
3,2
4,4
4,1
9,5
10,1
3,1
9,4
8,4
9,1
5,4
4,1
6,5
5,1
4,5
8,1
8,4
9,1
9,5
6,2
5,2
10,5
6,1
5,3
5,5
2,4
8,2
1,5
8,5
10,3
5,2
9,4
9,3
4,2
1,1
9,5
5,2
9,5
7,2
7,3
8,5
7,4
4,1
9,1
4,2
5,1
9,2
4,2
6,3
3,4
5,2
6,2
1,2
1,3
3,2
1,1
8,2
9,2
5,3
9,1
5,5
10,2
2,2
8,1
5,2
3,2
10,4
4,1
2,1
7,2
7,2
3,5
10,2
1,5
2,3
2,4
7,5
9,5
3,4
9,3
10,3
7,1
